NAME 
ROWS
 N  OBJ
 L  R0      
 L  R1      
 L  R2      
 L  R3      
 E  R4      
COLUMNS
    MARKER    'MARKER'                 'INTORG'
    I0(5)     OBJ       -149
    I0(5)     R0        -154
    I0(5)     R1        -384
    I0(5)     R2        -215
    I0(5)     R3        -137
    I0(5)     R4        840
    I1(5)     OBJ       -741
    I1(5)     R0        -201
    I1(5)     R1        -23
    I1(5)     R2        -402
    I1(5)     R3        -587
    I1(5)     R4        319
    I2(5)     OBJ       -532
    I2(5)     R0        -489
    I2(5)     R1        -987
    I2(5)     R2        -408
    I2(5)     R3        -916
    I2(5)     R4        108
    I3(5)     OBJ       -380
    I3(5)     R0        -993
    I3(5)     R1        -847
    I3(5)     R2        -746
    I3(5)     R3        -626
    I3(5)     R4        826
    I4(5)     OBJ       -656
    I4(5)     R0        -788
    I4(5)     R1        -18
    I4(5)     R2        -782
    I4(5)     R3        -580
    I4(5)     R4        165
    I5(5)     OBJ       -391
    I5(5)     R0        -148
    I5(5)     R1        -504
    I5(5)     R2        -63
    I5(5)     R3        -703
    I5(5)     R4        126
    I6(5)     OBJ       -694
    I6(5)     R0        -82
    I6(5)     R1        -104
    I6(5)     R2        -137
    I6(5)     R3        -774
    I6(5)     R4        329
    I7(5)     OBJ       -371
    I7(5)     R0        -232
    I7(5)     R1        -322
    I7(5)     R2        -476
    I7(5)     R3        -662
    I7(5)     R4        269
    I8(5)     OBJ       -579
    I8(5)     R0        -312
    I8(5)     R1        -253
    I8(5)     R2        -434
    I8(5)     R3        -935
    I8(5)     R4        448
    I9(5)     OBJ       -662
    I9(5)     R0        -178
    I9(5)     R1        -668
    I9(5)     R2        -715
    I9(5)     R3        -86
    I9(5)     R4        582
    I10(1)    R4        1
    MARKER    'MARKER'                 'INTEND'
RHS
    RHS1      R0        -2118
    RHS1      R1        -2626
    RHS1      R2        -2983
    RHS1      R3        -4308
    RHS1      R4        2006
BOUNDS
 UP BND1      I0(5)     1
 UP BND1      I1(5)     1
 UP BND1      I2(5)     1
 UP BND1      I3(5)     1
 UP BND1      I4(5)     1
 UP BND1      I5(5)     1
 UP BND1      I6(5)     1
 UP BND1      I7(5)     1
 UP BND1      I8(5)     1
 UP BND1      I9(5)     1
 LI BND1      I10(1)    0
ENDATA
